
Welcome to IBM(R) ILOG(R) CPLEX(R) Interactive Optimizer 22.1.1.0
  with Simplex, Mixed Integer & Barrier Optimizers
5725-A06 5725-A29 5724-Y48 5724-Y49 5724-Y54 5724-Y55 5655-Y21
Copyright IBM Corp. 1988, 2022.  All Rights Reserved.

Type 'help' for a list of available commands.
Type 'help' followed by a command name for more
information on commands.

CPLEX> Selected objective sense:  MINIMIZE
Selected objective  name:  00000000
Selected RHS        name:  RHS1
Selected bound      name:  BOUND
Problem 'ee.mps' read.
Read time = 0.03 sec. (3.17 ticks)
CPLEX> New value for time limit in seconds: 7200
CPLEX> New value for parallel optimization mode: -1
CPLEX> New value for default parallel thread count: 40
CPLEX> New value for mixed integer optimality gap tolerance: 1e-13
CPLEX> Version identifier: 22.1.1.0 | 2022-11-28 | 9160aff4d
CPXPARAM_Threads                                 40
CPXPARAM_Parallel                                -1
CPXPARAM_TimeLimit                               7200
CPXPARAM_MIP_Tolerances_MIPGap                   1e-13
Found incumbent of value 0.000000 after 0.00 sec. (0.31 ticks)
Tried aggregator 2 times.
MIP Presolve eliminated 182 rows and 2745 columns.
MIP Presolve modified 6090 coefficients.
Aggregator did 713 substitutions.
Reduced MIP has 3636 rows, 7840 columns, and 28953 nonzeros.
Reduced MIP has 7840 binaries, 0 generals, 0 SOSs, and 0 indicators.
Presolve time = 0.07 sec. (69.13 ticks)
Probing time = 0.03 sec. (5.35 ticks)
Tried aggregator 1 time.
Detecting symmetries...
Reduced MIP has 3636 rows, 7840 columns, and 28953 nonzeros.
Reduced MIP has 7840 binaries, 0 generals, 0 SOSs, and 0 indicators.
Presolve time = 0.02 sec. (22.12 ticks)
Probing time = 0.02 sec. (5.13 ticks)
Clique table members: 18788.
MIP emphasis: balance optimality and feasibility.
MIP search method: dynamic search.
Parallel mode: opportunistic, using up to 40 threads.
Root relaxation solution time = 0.10 sec. (91.38 ticks)

        Nodes                                         Cuts/
   Node  Left     Objective  IInf  Best Integer    Best Bound    ItCnt     Gap

*     0+    0                            0.0000  -1.54000e+13              --- 
*     0+    0                      -4.59000e+12  -1.54000e+13           235.51%
*     0+    0                      -4.80000e+12  -1.54000e+13           220.83%
*     0+    0                      -6.00000e+12  -1.54000e+13           156.67%
      0     0  -1.53900e+13   140  -6.00000e+12  -1.53900e+13     2331  156.50%
*     0+    0                      -1.53900e+13  -1.53900e+13             0.00%
      0     0  -1.53900e+13   233  -1.53900e+13     Cuts: 140     3031    0.00%
      0     0  -1.53900e+13   156  -1.53900e+13      Cuts: 86     3512    0.00%
      0     0  -1.53900e+13   225  -1.53900e+13      Cuts: 56     3807    0.00%
*     0+    0                      -1.53900e+13  -1.53900e+13             0.00%
*     0+    0                      -1.53900e+13  -1.53900e+13             0.00%
*     0+    0                      -1.53900e+13  -1.53900e+13             0.00%
      0    14    infeasible        -1.53900e+13  -1.53900e+13     8557    0.00%
Elapsed time = 3.05 sec. (1808.86 ticks, tree = 0.02 MB, solutions = 8)
    502    76        cutoff        -1.53900e+13  -1.53900e+13    63791    0.00%
   1492    81        cutoff        -1.53900e+13  -1.53900e+13    56536    0.00%
   2740   104  -1.53900e+13    42  -1.53900e+13  -1.53900e+13    59265    0.00%
   3735    46        cutoff        -1.53900e+13  -1.53900e+13   143933    0.00%
   4149    43        cutoff        -1.53900e+13  -1.53900e+13    93782    0.00%
   4340    45  -1.53900e+13     7  -1.53900e+13  -1.53900e+13   170828    0.00%

GUB cover cuts applied:  11
Clique cuts applied:  25
Cover cuts applied:  438
Flow cuts applied:  3
Mixed integer rounding cuts applied:  21
Zero-half cuts applied:  17
Lift and project cuts applied:  6
Gomory fractional cuts applied:  19

Root node processing (before b&c):
  Real time             =    1.99 sec. (1805.27 ticks)
Parallel b&c, 40 threads:
  Real time             =    3.97 sec. (1599.70 ticks)
  Sync time (average)   =    1.66 sec.
  Wait time (average)   =    0.00 sec.
                          ------------
Total (root+branch&cut) =    5.96 sec. (3404.97 ticks)

Solution pool: 19 solutions saved.

MIP - Integer optimal solution:  Objective = -1.5389998589e+13
Solution time =    6.09 sec.  Iterations = 178893  Nodes = 4404
Deterministic time = 3405.00 ticks  (559.09 ticks/sec)

CPLEX> Solution 'p20' written to file 'ee.sol'.
CPLEX> 